(set-logic QF_S)
(declare-fun var_0xINPUT_3690 () String)
(declare-fun T0_3 () String)
(declare-fun T1_3 () String)
(assert (and (= (len var_0xINPUT_3690) 0) (= var_0xINPUT_3690 (concat T0_3 T1_3)) (= (len T0_3) 0) (not (in T1_3 /\?/))))
(check-sat var_0xINPUT_3690)